certificates/rado_a5_c242_N48.cnf
c Rad2 upper bound instance: x1 + 5*x2 - x3 = 242, interval [1,48]
p cnf 48 470
1 3 48 0
-1 -3 -48 0
2 4 48 0
-2 -4 -48 0
3 5 48 0
-3 -5 -48 0
4 6 48 0
-4 -6 -48 0
5 7 48 0
-5 -7 -48 0
1 8 47 0
-1 -8 -47 0
6 8 48 0
-6 -8 -48 0
2 9 47 0
-2 -9 -47 0
7 9 48 0
-7 -9 -48 0
3 10 47 0
-3 -10 -47 0
8 10 48 0
-8 -10 -48 0
4 11 47 0
-4 -11 -47 0
9 11 48 0
-9 -11 -48 0
5 12 47 0
-5 -12 -47 0
10 12 48 0
-10 -12 -48 0
1 13 46 0
-1 -13 -46 0
6 13 47 0
-6 -13 -47 0
11 13 48 0
-11 -13 -48 0
2 14 46 0
-2 -14 -46 0
7 14 47 0
-7 -14 -47 0
12 14 48 0
-12 -14 -48 0
3 15 46 0
-3 -15 -46 0
8 15 47 0
-8 -15 -47 0
13 15 48 0
-13 -15 -48 0
4 16 46 0
-4 -16 -46 0
9 16 47 0
-9 -16 -47 0
14 16 48 0
-14 -16 -48 0
5 17 46 0
-5 -17 -46 0
10 17 47 0
-10 -17 -47 0
15 17 48 0
-15 -17 -48 0
1 18 45 0
-1 -18 -45 0
6 18 46 0
-6 -18 -46 0
11 18 47 0
-11 -18 -47 0
16 18 48 0
-16 -18 -48 0
2 19 45 0
-2 -19 -45 0
7 19 46 0
-7 -19 -46 0
12 19 47 0
-12 -19 -47 0
17 19 48 0
-17 -19 -48 0
3 20 45 0
-3 -20 -45 0
8 20 46 0
-8 -20 -46 0
13 20 47 0
-13 -20 -47 0
18 20 48 0
-18 -20 -48 0
4 21 45 0
-4 -21 -45 0
9 21 46 0
-9 -21 -46 0
14 21 47 0
-14 -21 -47 0
19 21 48 0
-19 -21 -48 0
5 22 45 0
-5 -22 -45 0
10 22 46 0
-10 -22 -46 0
15 22 47 0
-15 -22 -47 0
20 22 48 0
-20 -22 -48 0
1 23 44 0
-1 -23 -44 0
6 23 45 0
-6 -23 -45 0
11 23 46 0
-11 -23 -46 0
16 23 47 0
-16 -23 -47 0
21 23 48 0
-21 -23 -48 0
2 24 44 0
-2 -24 -44 0
7 24 45 0
-7 -24 -45 0
12 24 46 0
-12 -24 -46 0
17 24 47 0
-17 -24 -47 0
22 24 48 0
-22 -24 -48 0
3 25 44 0
-3 -25 -44 0
8 25 45 0
-8 -25 -45 0
13 25 46 0
-13 -25 -46 0
18 25 47 0
-18 -25 -47 0
23 25 48 0
-23 -25 -48 0
4 26 44 0
-4 -26 -44 0
9 26 45 0
-9 -26 -45 0
14 26 46 0
-14 -26 -46 0
19 26 47 0
-19 -26 -47 0
24 26 48 0
-24 -26 -48 0
5 27 44 0
-5 -27 -44 0
10 27 45 0
-10 -27 -45 0
15 27 46 0
-15 -27 -46 0
20 27 47 0
-20 -27 -47 0
25 27 48 0
-25 -27 -48 0
1 28 43 0
-1 -28 -43 0
6 28 44 0
-6 -28 -44 0
11 28 45 0
-11 -28 -45 0
16 28 46 0
-16 -28 -46 0
21 28 47 0
-21 -28 -47 0
26 28 48 0
-26 -28 -48 0
2 29 43 0
-2 -29 -43 0
7 29 44 0
-7 -29 -44 0
12 29 45 0
-12 -29 -45 0
17 29 46 0
-17 -29 -46 0
22 29 47 0
-22 -29 -47 0
27 29 48 0
-27 -29 -48 0
3 30 43 0
-3 -30 -43 0
8 30 44 0
-8 -30 -44 0
13 30 45 0
-13 -30 -45 0
18 30 46 0
-18 -30 -46 0
23 30 47 0
-23 -30 -47 0
28 30 48 0
-28 -30 -48 0
4 31 43 0
-4 -31 -43 0
9 31 44 0
-9 -31 -44 0
14 31 45 0
-14 -31 -45 0
19 31 46 0
-19 -31 -46 0
24 31 47 0
-24 -31 -47 0
29 31 48 0
-29 -31 -48 0
5 32 43 0
-5 -32 -43 0
10 32 44 0
-10 -32 -44 0
15 32 45 0
-15 -32 -45 0
20 32 46 0
-20 -32 -46 0
25 32 47 0
-25 -32 -47 0
30 32 48 0
-30 -32 -48 0
1 33 42 0
-1 -33 -42 0
6 33 43 0
-6 -33 -43 0
11 33 44 0
-11 -33 -44 0
16 33 45 0
-16 -33 -45 0
21 33 46 0
-21 -33 -46 0
26 33 47 0
-26 -33 -47 0
31 33 48 0
-31 -33 -48 0
2 34 42 0
-2 -34 -42 0
7 34 43 0
-7 -34 -43 0
12 34 44 0
-12 -34 -44 0
17 34 45 0
-17 -34 -45 0
22 34 46 0
-22 -34 -46 0
27 34 47 0
-27 -34 -47 0
32 34 48 0
-32 -34 -48 0
3 35 42 0
-3 -35 -42 0
8 35 43 0
-8 -35 -43 0
13 35 44 0
-13 -35 -44 0
18 35 45 0
-18 -35 -45 0
23 35 46 0
-23 -35 -46 0
28 35 47 0
-28 -35 -47 0
33 35 48 0
-33 -35 -48 0
4 36 42 0
-4 -36 -42 0
9 36 43 0
-9 -36 -43 0
14 36 44 0
-14 -36 -44 0
19 36 45 0
-19 -36 -45 0
24 36 46 0
-24 -36 -46 0
29 36 47 0
-29 -36 -47 0
34 36 48 0
-34 -36 -48 0
5 37 42 0
-5 -37 -42 0
10 37 43 0
-10 -37 -43 0
15 37 44 0
-15 -37 -44 0
20 37 45 0
-20 -37 -45 0
25 37 46 0
-25 -37 -46 0
30 37 47 0
-30 -37 -47 0
35 37 48 0
-35 -37 -48 0
1 38 41 0
-1 -38 -41 0
6 38 42 0
-6 -38 -42 0
11 38 43 0
-11 -38 -43 0
16 38 44 0
-16 -38 -44 0
21 38 45 0
-21 -38 -45 0
26 38 46 0
-26 -38 -46 0
31 38 47 0
-31 -38 -47 0
36 38 48 0
-36 -38 -48 0
2 39 41 0
-2 -39 -41 0
7 39 42 0
-7 -39 -42 0
12 39 43 0
-12 -39 -43 0
17 39 44 0
-17 -39 -44 0
22 39 45 0
-22 -39 -45 0
27 39 46 0
-27 -39 -46 0
32 39 47 0
-32 -39 -47 0
37 39 48 0
-37 -39 -48 0
3 40 41 0
-3 -40 -41 0
8 40 42 0
-8 -40 -42 0
13 40 43 0
-13 -40 -43 0
18 40 44 0
-18 -40 -44 0
23 40 45 0
-23 -40 -45 0
28 40 46 0
-28 -40 -46 0
33 40 47 0
-33 -40 -47 0
38 40 48 0
-38 -40 -48 0
4 41 0
-4 -41 0
9 41 42 0
-9 -41 -42 0
14 41 43 0
-14 -41 -43 0
19 41 44 0
-19 -41 -44 0
24 41 45 0
-24 -41 -45 0
29 41 46 0
-29 -41 -46 0
34 41 47 0
-34 -41 -47 0
39 41 48 0
-39 -41 -48 0
5 41 42 0
-5 -41 -42 0
10 42 0
-10 -42 0
15 42 43 0
-15 -42 -43 0
20 42 44 0
-20 -42 -44 0
25 42 45 0
-25 -42 -45 0
30 42 46 0
-30 -42 -46 0
35 42 47 0
-35 -42 -47 0
40 42 48 0
-40 -42 -48 0
1 40 43 0
-1 -40 -43 0
6 41 43 0
-6 -41 -43 0
11 42 43 0
-11 -42 -43 0
16 43 0
-16 -43 0
21 43 44 0
-21 -43 -44 0
26 43 45 0
-26 -43 -45 0
31 43 46 0
-31 -43 -46 0
36 43 47 0
-36 -43 -47 0
41 43 48 0
-41 -43 -48 0
2 40 44 0
-2 -40 -44 0
7 41 44 0
-7 -41 -44 0
12 42 44 0
-12 -42 -44 0
17 43 44 0
-17 -43 -44 0
22 44 0
-22 -44 0
27 44 45 0
-27 -44 -45 0
32 44 46 0
-32 -44 -46 0
37 44 47 0
-37 -44 -47 0
42 44 48 0
-42 -44 -48 0
3 40 45 0
-3 -40 -45 0
8 41 45 0
-8 -41 -45 0
13 42 45 0
-13 -42 -45 0
18 43 45 0
-18 -43 -45 0
23 44 45 0
-23 -44 -45 0
28 45 0
-28 -45 0
33 45 46 0
-33 -45 -46 0
38 45 47 0
-38 -45 -47 0
43 45 48 0
-43 -45 -48 0
4 40 46 0
-4 -40 -46 0
9 41 46 0
-9 -41 -46 0
14 42 46 0
-14 -42 -46 0
19 43 46 0
-19 -43 -46 0
24 44 46 0
-24 -44 -46 0
29 45 46 0
-29 -45 -46 0
34 46 0
-34 -46 0
39 46 47 0
-39 -46 -47 0
44 46 48 0
-44 -46 -48 0
5 40 47 0
-5 -40 -47 0
10 41 47 0
-10 -41 -47 0
15 42 47 0
-15 -42 -47 0
20 43 47 0
-20 -43 -47 0
25 44 47 0
-25 -44 -47 0
30 45 47 0
-30 -45 -47 0
35 46 47 0
-35 -46 -47 0
40 47 0
-40 -47 0
45 47 48 0
-45 -47 -48 0
1 39 48 0
-1 -39 -48 0
6 40 48 0
-6 -40 -48 0
11 41 48 0
-11 -41 -48 0
16 42 48 0
-16 -42 -48 0
21 43 48 0
-21 -43 -48 0
26 44 48 0
-26 -44 -48 0
31 45 48 0
-31 -45 -48 0
36 46 48 0
-36 -46 -48 0
41 47 48 0
-41 -47 -48 0
46 48 0
-46 -48 0
