certificates/rado_a5_c242_N48.drat
-48 0
46 0
-34 0
32 0
36 0
-20 0
-44 0
-24 0
18 0
22 0
42 0
26 0
12 0
2 0
-6 0
-30 0
-10 0
-14 0
-4 0
-38 0
0
